100
27634

865 865
395 395
777 777
912 912
431 431
42 42
266 266
989 989
524 524
498 498
415 415
941 941
803 803
850 850
311 311
992 992
489 489
367 367
598 598
914 914
930 930
224 224
517 517
143 143
289 289
144 144
774 774
98 98
634 634
819 819
257 257
932 932
546 546
723 723
830 830
617 617
924 924
151 151
318 318
102 102
748 748
76 76
921 921
871 871
701 701
339 339
484 484
574 574
104 104
363 363
445 445
324 324
626 626
656 656
935 935
210 210
990 990
566 566
489 489
454 454
887 887
534 534
267 267
64 64
825 825
941 941
562 562
938 938
15 15
96 96
737 737
861 861
409 409
728 728
845 845
804 804
685 685
641 641
2 2
627 627
506 506
848 848
889 889
342 342
250 250
748 748
334 334
721 721
892 892
65 65
196 196
940 940
582 582
228 228
245 245
823 823
991 991
146 146
823 823
557 557
